************************************************************************
file with basedata            : j60_31.bas
initial value random generator: 1095688050
************************************************************************
projects                      :  1
jobs (incl. supersource/sink ):  62
horizon                       :  339
RESOURCES
  - renewable                 :  4   R
  - nonrenewable              :  0   N
  - doubly constrained        :  0   D
************************************************************************
PROJECT INFORMATION:
pronr.  #jobs rel.date duedate tardcost  MPM-Time
    1     60      0       89        2       89
************************************************************************
PRECEDENCE RELATIONS:
jobnr.    #modes  #successors   successors
   1        1          3           2   3   4
   2        1          3           6  27  37
   3        1          3           5   7   9
   4        1          1          23
   5        1          2          22  33
   6        1          1          33
   7        1          3           8  11  16
   8        1          3          10  14  59
   9        1          3          18  21  43
  10        1          3          13  15  19
  11        1          1          12
  12        1          2          49  50
  13        1          3          32  34  40
  14        1          1          22
  15        1          1          41
  16        1          2          17  58
  17        1          3          25  29  51
  18        1          1          38
  19        1          2          20  35
  20        1          2          24  28
  21        1          1          52
  22        1          2          30  31
  23        1          1          26
  24        1          1          33
  25        1          1          48
  26        1          3          31  54  61
  27        1          2          29  55
  28        1          1          36
  29        1          1          59
  30        1          1          51
  31        1          1          39
  32        1          1          61
  33        1          1          53
  34        1          1          50
  35        1          1          51
  36        1          2          44  54
  37        1          2          49  60
  38        1          1          42
  39        1          1          40
  40        1          1          46
  41        1          1          53
  42        1          2          46  52
  43        1          2          45  47
  44        1          1          48
  45        1          1          52
  46        1          1          53
  47        1          1          48
  48        1          2          55  57
  49        1          1          55
  50        1          1          56
  51        1          1          54
  52        1          1          56
  53        1          1          57
  54        1          1          57
  55        1          1          61
  56        1          1          58
  57        1          1          60
  58        1          1          60
  59        1          1          62
  60        1          1          62
  61        1          1          62
  62        1          0        
************************************************************************
REQUESTS/DURATIONS:
jobnr. mode duration  R 1  R 2  R 3  R 4
------------------------------------------------------------------------
  1      1     0       0    0    0    0
  2      1     9      10    6    1    2
  3      1     6      10    6    6    1
  4      1     9      10    4    8    8
  5      1     4      10    2    8    2
  6      1    10       8    7    5    7
  7      1     7       4    2    7   10
  8      1     9       4    4    2    2
  9      1    10       8    5    5    8
 10      1     6       9    5    1    1
 11      1     9       4    3    5    7
 12      1     7       9    7    7    8
 13      1     2       5    6    7    4
 14      1     9      10    5    2    7
 15      1     5       9    3    4   10
 16      1     2       9   10    2   10
 17      1     4       4    5    4    3
 18      1     8       4    1    7    7
 19      1     2       7    3    1    5
 20      1     8       1    4    4    5
 21      1     4       5    6    4    1
 22      1     6       8    7    6    7
 23      1     1       4    7    9    8
 24      1     1       6    3    4    8
 25      1     8       6    3    9    3
 26      1     8      10    8    1    7
 27      1     2      10   10    1    6
 28      1    10       3    9    9    5
 29      1     8       1    5    4   10
 30      1     2       2    2    9    8
 31      1     8       1    9    5    7
 32      1     7       3    6    4    1
 33      1     5       6    3    1    3
 34      1     1       3    6    2   10
 35      1     1       4    3    9    3
 36      1     3       4    3    5    6
 37      1     5       4   10    5    7
 38      1    10       5    1    6    3
 39      1    10       5    8    3    9
 40      1     5       8    6    7    5
 41      1    10      10    7    9   10
 42      1     1      10    7    7    7
 43      1     1       1    6    7    7
 44      1     8       3    3    6    6
 45      1    10       4    2    3    7
 46      1    10      10    8    8    9
 47      1     6       3    7    3    7
 48      1     4       4    2    1    1
 49      1     1       8    9    4   10
 50      1     2       4    9    2    6
 51      1    10       1    5    1   10
 52      1     7       3    9    8   10
 53      1     6      10    7    3    3
 54      1     6       8    4   10    8
 55      1     1       4    1    5    2
 56      1     1       1    6    1    2
 57      1     5       2    3    4    5
 58      1     3       1    7    4    9
 59      1     2       9    1    3   10
 60      1     8       3    3    7    1
 61      1     6       4    3    2    6
 62      1     0       0    0    0    0
************************************************************************
RESOURCEAVAILABILITIES:
  R 1  R 2  R 3  R 4
   41   36   34   38
************************************************************************
